11
0 24 50 34 50 81 55 7 11 48 47 
67 0 60 18 64 88 76 3 71 22 11 
40 30 0 25 67 14 16 79 42 76 55 
12 38 68 0 47 20 2 90 1 68 20 
18 70 81 20 0 47 85 30 36 35 19 
29 91 85 10 24 0 11 41 23 95 86 
39 76 56 85 50 80 0 42 92 66 9 
43 48 24 80 2 6 5 0 31 88 68 
46 48 92 49 22 44 40 57 0 28 14 
14 34 51 88 97 64 11 51 25 0 80 
82 27 52 91 98 77 97 81 85 57 0 
